Route #1: 48 42 47 28 25 13 33 15 3 38
Route #2: 10 37 8 14 32 20 34 23 49 41 9
Route #3: 1 53 35 26 52 43
Route #4: 21 6 36 24 22 27 11
Route #5: 16 18 46 39 54 4 45 12
Route #6: 17 7 31
Route #7: 5 44 50 40 2 30 19 51 29
cost 1689.2343712811066
